90 4005
1 2 215
1 3 43
1 4 88
1 5 252
1 6 71
1 7 89
1 8 259
1 9 234
1 10 9
1 11 4
1 12 139
1 13 259
1 14 65
1 15 35
1 16 42
1 17 82
1 18 138
1 19 100
1 20 100
1 21 185
1 22 249
1 23 166
1 24 77
1 25 267
1 26 62
1 27 120
1 28 157
1 29 52
1 30 221
1 31 90
1 32 239
1 33 64
1 34 139
1 35 110
1 36 62
1 37 208
1 38 211
1 39 229
1 40 74
1 41 61
1 42 50
1 43 173
1 44 152
1 45 203
1 46 178
1 47 98
1 48 105
1 49 235
1 50 68
1 51 187
1 52 250
1 53 206
1 54 198
1 55 142
1 56 189
1 57 51
1 58 159
1 59 256
1 60 236
1 61 126
1 62 78
1 63 129
1 64 147
1 65 76
1 66 187
1 67 7
1 68 198
1 69 106
1 70 228
1 71 200
1 72 265
1 73 119
1 74 82
1 75 125
1 76 0
1 77 122
1 78 227
1 79 82
1 80 194
1 81 136
1 82 187
1 83 78
1 84 220
1 85 190
1 86 49
1 87 176
1 88 43
1 89 83
1 90 69
2 3 222
2 4 97
2 5 6
2 6 143
2 7 48
2 8 257
2 9 191
2 10 36
2 11 59
2 12 53
2 13 248
2 14 147
2 15 7
2 16 41
2 17 183
2 18 262
2 19 217
2 20 97
2 21 114
2 22 191
2 23 67
2 24 77
2 25 246
2 26 202
2 27 175
2 28 244
2 29 196
2 30 133
2 31 232
2 32 265
2 33 138
2 34 104
2 35 57
2 36 125
2 37 207
2 38 206
2 39 99
2 40 266
2 41 229
2 42 226
2 43 165
2 44 150
2 45 62
2 46 61
2 47 30
2 48 178
2 49 167
2 50 132
2 51 207
2 52 26
2 53 213
2 54 224
2 55 165
2 56 92
2 57 126
2 58 24
2 59 155
2 60 181
2 61 4
2 62 21
2 63 175
2 64 24
2 65 93
2 66 207
2 67 208
2 68 243
2 69 168
2 70 167
2 71 185
2 72 210
2 73 175
2 74 88
2 75 261
2 76 239
2 77 158
2 78 87
2 79 84
2 80 135
2 81 260
2 82 141
2 83 179
2 84 251
2 85 116
2 86 130
2 87 198
2 88 180
2 89 25
2 90 253
3 4 153
3 5 153
3 6 81
3 7 114
3 8 204
3 9 21
3 10 160
3 11 184
3 12 73
3 13 11
3 14 42
3 15 142
3 16 265
3 17 125
3 18 61
3 19 2
3 20 139
3 21 134
3 22 264
3 23 133
3 24 243
3 25 212
3 26 263
3 27 148
3 28 210
3 29 82
3 30 9
3 31 247
3 32 71
3 33 164
3 34 247
3 35 117
3 36 42
3 37 252
3 38 115
3 39 227
3 40 204
3 41 164
3 42 243
3 43 258
3 44 55
3 45 29
3 46 123
3 47 14
3 48 20
3 49 255
3 50 155
3 51 258
3 52 246
3 53 3
3 54 75
3 55 178
3 56 150
3 57 29
3 58 158
3 59 23
3 60 134
3 61 7
3 62 108
3 63 120
3 64 212
3 65 140
3 66 257
3 67 163
3 68 104
3 69 202
3 70 234
3 71 129
3 72 119
3 73 262
3 74 38
3 75 203
3 76 232
3 77 53
3 78 138
3 79 31
3 80 190
3 81 155
3 82 36
3 83 257
3 84 177
3 85 232
3 86 221
3 87 89
3 88 181
3 89 228
3 90 210
4 5 95
4 6 71
4 7 206
4 8 98
4 9 206
4 10 61
4 11 34
4 12 247
4 13 109
4 14 34
4 15 34
4 16 158
4 17 170
4 18 104
4 19 117
4 20 240
4 21 177
4 22 164
4 23 179
4 24 107
4 25 190
4 26 106
4 27 157
4 28 184
4 29 28
4 30 231
4 31 118
4 32 108
4 33 62
4 34 115
4 35 175
4 36 145
4 37 156
4 38 100
4 39 72
4 40 201
4 41 192
4 42 146
4 43 231
4 44 268
4 45 207
4 46 247
4 47 197
4 48 122
4 49 123
4 50 187
4 51 33
4 52 269
4 53 192
4 54 143
4 55 168
4 56 212
4 57 66
4 58 10
4 59 223
4 60 266
4 61 226
4 62 164
4 63 67
4 64 9
4 65 10
4 66 54
4 67 134
4 68 167
4 69 235
4 70 231
4 71 80
4 72 130
4 73 48
4 74 183
4 75 255
4 76 101
4 77 110
4 78 102
4 79 150
4 80 161
4 81 119
4 82 2
4 83 127
4 84 53
4 85 6
4 86 148
4 87 122
4 88 57
4 89 80
4 90 163
5 6 3
5 7 103
5 8 162
5 9 176
5 10 201
5 11 226
5 12 172
5 13 128
5 14 240
5 15 198
5 16 265
5 17 157
5 18 139
5 19 248
5 20 27
5 21 251
5 22 55
5 23 55
5 24 112
5 25 259
5 26 159
5 27 63
5 28 44
5 29 83
5 30 256
5 31 265
5 32 160
5 33 183
5 34 112
5 35 261
5 36 176
5 37 90
5 38 212
5 39 236
5 40 38
5 41 105
5 42 177
5 43 128
5 44 150
5 45 154
5 46 127
5 47 67
5 48 187
5 49 249
5 50 216
5 51 124
5 52 124
5 53 187
5 54 110
5 55 265
5 56 157
5 57 158
5 58 46
5 59 204
5 60 88
5 61 244
5 62 251
5 63 124
5 64 234
5 65 261
5 66 138
5 67 28
5 68 100
5 69 214
5 70 15
5 71 221
5 72 5
5 73 58
5 74 75
5 75 106
5 76 31
5 77 5
5 78 159
5 79 247
5 80 239
5 81 75
5 82 185
5 83 119
5 84 18
5 85 209
5 86 201
5 87 70
5 88 129
5 89 106
5 90 132
6 7 65
6 8 219
6 9 228
6 10 37
6 11 160
6 12 0
6 13 204
6 14 257
6 15 158
6 16 166
6 17 137
6 18 22
6 19 259
6 20 61
6 21 158
6 22 120
6 23 262
6 24 167
6 25 262
6 26 66
6 27 14
6 28 192
6 29 33
6 30 179
6 31 227
6 32 12
6 33 112
6 34 64
6 35 79
6 36 136
6 37 82
6 38 221
6 39 268
6 40 1
6 41 14
6 42 159
6 43 100
6 44 161
6 45 130
6 46 184
6 47 125
6 48 264
6 49 229
6 50 203
6 51 29
6 52 203
6 53 24
6 54 42
6 55 208
6 56 228
6 57 202
6 58 262
6 59 83
6 60 117
6 61 66
6 62 64
6 63 124
6 64 110
6 65 181
6 66 113
6 67 12
6 68 117
6 69 266
6 70 153
6 71 111
6 72 126
6 73 193
6 74 198
6 75 121
6 76 6
6 77 78
6 78 112
6 79 6
6 80 64
6 81 162
6 82 164
6 83 186
6 84 239
6 85 223
6 86 112
6 87 227
6 88 171
6 89 0
6 90 206
7 8 18
7 9 152
7 10 224
7 11 43
7 12 54
7 13 72
7 14 129
7 15 170
7 16 61
7 17 168
7 18 229
7 19 224
7 20 201
7 21 135
7 22 175
7 23 224
7 24 145
7 25 4
7 26 264
7 27 231
7 28 4
7 29 164
7 30 159
7 31 163
7 32 240
7 33 108
7 34 224
7 35 188
7 36 31
7 37 203
7 38 228
7 39 12
7 40 31
7 41 203
7 42 225
7 43 143
7 44 53
7 45 76
7 46 234
7 47 196
7 48 104
7 49 117
7 50 223
7 51 52
7 52 102
7 53 219
7 54 208
7 55 243
7 56 227
7 57 153
7 58 185
7 59 0
7 60 118
7 61 4
7 62 213
7 63 135
7 64 140
7 65 127
7 66 253
7 67 3
7 68 6
7 69 9
7 70 201
7 71 234
7 72 167
7 73 180
7 74 187
7 75 57
7 76 56
7 77 42
7 78 53
7 79 23
7 80 17
7 81 20
7 82 163
7 83 214
7 84 259
7 85 183
7 86 138
7 87 246
7 88 211
7 89 105
7 90 226
8 9 153
8 10 70
8 11 10
8 12 16
8 13 41
8 14 78
8 15 266
8 16 31
8 17 171
8 18 55
8 19 90
8 20 187
8 21 129
8 22 137
8 23 167
8 24 104
8 25 221
8 26 192
8 27 73
8 28 70
8 29 24
8 30 18
8 31 257
8 32 80
8 33 240
8 34 100
8 35 33
8 36 110
8 37 136
8 38 121
8 39 177
8 40 2
8 41 26
8 42 245
8 43 47
8 44 146
8 45 208
8 46 171
8 47 216
8 48 246
8 49 269
8 50 208
8 51 26
8 52 228
8 53 66
8 54 60
8 55 237
8 56 148
8 57 188
8 58 217
8 59 144
8 60 145
8 61 42
8 62 42
8 63 150
8 64 96
8 65 82
8 66 191
8 67 137
8 68 184
8 69 144
8 70 45
8 71 119
8 72 100
8 73 17
8 74 260
8 75 100
8 76 36
8 77 250
8 78 268
8 79 79
8 80 92
8 81 200
8 82 92
8 83 31
8 84 64
8 85 99
8 86 251
8 87 186
8 88 241
8 89 117
8 90 121
9 10 56
9 11 164
9 12 122
9 13 118
9 14 249
9 15 211
9 16 170
9 17 243
9 18 62
9 19 220
9 20 74
9 21 125
9 22 50
9 23 198
9 24 46
9 25 38
9 26 150
9 27 176
9 28 52
9 29 72
9 30 115
9 31 260
9 32 77
9 33 212
9 34 262
9 35 164
9 36 173
9 37 128
9 38 29
9 39 34
9 40 226
9 41 150
9 42 130
9 43 131
9 44 24
9 45 234
9 46 121
9 47 116
9 48 65
9 49 267
9 50 146
9 51 52
9 52 248
9 53 44
9 54 64
9 55 60
9 56 158
9 57 111
9 58 103
9 59 268
9 60 114
9 61 212
9 62 102
9 63 58
9 64 164
9 65 208
9 66 149
9 67 232
9 68 187
9 69 166
9 70 190
9 71 244
9 72 54
9 73 185
9 74 129
9 75 151
9 76 85
9 77 256
9 78 180
9 79 174
9 80 238
9 81 80
9 82 166
9 83 140
9 84 27
9 85 81
9 86 179
9 87 269
9 88 225
9 89 31
9 90 7
10 11 87
10 12 104
10 13 245
10 14 120
10 15 32
10 16 87
10 17 3
10 18 47
10 19 44
10 20 3
10 21 269
10 22 94
10 23 200
10 24 114
10 25 116
10 26 231
10 27 142
10 28 78
10 29 182
10 30 243
10 31 35
10 32 173
10 33 253
10 34 231
10 35 137
10 36 155
10 37 187
10 38 250
10 39 76
10 40 142
10 41 57
10 42 130
10 43 181
10 44 17
10 45 4
10 46 41
10 47 229
10 48 253
10 49 37
10 50 224
10 51 215
10 52 135
10 53 14
10 54 122
10 55 48
10 56 179
10 57 71
10 58 72
10 59 195
10 60 49
10 61 104
10 62 118
10 63 265
10 64 263
10 65 22
10 66 149
10 67 53
10 68 120
10 69 23
10 70 212
10 71 223
10 72 85
10 73 1
10 74 188
10 75 170
10 76 169
10 77 39
10 78 66
10 79 153
10 80 21
10 81 68
10 82 108
10 83 230
10 84 78
10 85 45
10 86 172
10 87 191
10 88 169
10 89 28
10 90 102
11 12 263
11 13 152
11 14 17
11 15 267
11 16 29
11 17 164
11 18 199
11 19 182
11 20 48
11 21 65
11 22 192
11 23 240
11 24 259
11 25 186
11 26 152
11 27 84
11 28 138
11 29 71
11 30 63
11 31 123
11 32 57
11 33 67
11 34 146
11 35 254
11 36 181
11 37 21
11 38 47
11 39 3
11 40 121
11 41 168
11 42 264
11 43 88
11 44 115
11 45 125
11 46 55
11 47 173
11 48 7
11 49 261
11 50 69
11 51 11
11 52 50
11 53 65
11 54 178
11 55 254
11 56 147
11 57 18
11 58 95
11 59 65
11 60 78
11 61 67
11 62 207
11 63 36
11 64 168
11 65 241
11 66 233
11 67 77
11 68 235
11 69 32
11 70 167
11 71 156
11 72 190
11 73 127
11 74 119
11 75 63
11 76 50
11 77 35
11 78 14
11 79 245
11 80 257
11 81 144
11 82 192
11 83 90
11 84 119
11 85 125
11 86 206
11 87 163
11 88 267
11 89 220
11 90 28
12 13 51
12 14 119
12 15 249
12 16 75
12 17 227
12 18 156
12 19 201
12 20 106
12 21 8
12 22 258
12 23 256
12 24 141
12 25 246
12 26 136
12 27 132
12 28 130
12 29 221
12 30 263
12 31 206
12 32 260
12 33 236
12 34 115
12 35 239
12 36 154
12 37 213
12 38 131
12 39 204
12 40 164
12 41 181
12 42 134
12 43 237
12 44 216
12 45 69
12 46 245
12 47 197
12 48 221
12 49 29
12 50 206
12 51 135
12 52 174
12 53 19
12 54 109
12 55 64
12 56 188
12 57 102
12 58 259
12 59 265
12 60 177
12 61 119
12 62 206
12 63 178
12 64 269
12 65 14
12 66 22
12 67 61
12 68 234
12 69 111
12 70 237
12 71 266
12 72 35
12 73 1
12 74 40
12 75 207
12 76 264
12 77 57
12 78 26
12 79 89
12 80 205
12 81 104
12 82 222
12 83 19
12 84 214
12 85 210
12 86 150
12 87 254
12 88 174
12 89 27
12 90 200
13 14 144
13 15 78
13 16 223
13 17 8
13 18 94
13 19 1
13 20 1
13 21 150
13 22 232
13 23 260
13 24 33
13 25 63
13 26 133
13 27 237
13 28 141
13 29 215
13 30 255
13 31 181
13 32 200
13 33 68
13 34 45
13 35 197
13 36 254
13 37 180
13 38 219
13 39 215
13 40 256
13 41 42
13 42 146
13 43 136
13 44 106
13 45 207
13 46 237
13 47 53
13 48 155
13 49 181
13 50 241
13 51 32
13 52 32
13 53 170
13 54 62
13 55 113
13 56 152
13 57 52
13 58 16
13 59 120
13 60 218
13 61 213
13 62 125
13 63 107
13 64 109
13 65 266
13 66 262
13 67 62
13 68 257
13 69 139
13 70 1
13 71 220
13 72 142
13 73 147
13 74 268
13 75 14
13 76 17
13 77 162
13 78 11
13 79 111
13 80 210
13 81 42
13 82 129
13 83 206
13 84 90
13 85 3
13 86 184
13 87 77
13 88 104
13 89 81
13 90 201
14 15 93
14 16 235
14 17 247
14 18 268
14 19 268
14 20 99
14 21 244
14 22 10
14 23 51
14 24 100
14 25 255
14 26 88
14 27 152
14 28 110
14 29 211
14 30 223
14 31 218
14 32 85
14 33 254
14 34 94
14 35 168
14 36 76
14 37 237
14 38 201
14 39 135
14 40 11
14 41 190
14 42 38
14 43 119
14 44 200
14 45 246
14 46 256
14 47 88
14 48 230
14 49 117
14 50 148
14 51 134
14 52 45
14 53 33
14 54 233
14 55 200
14 56 177
14 57 81
14 58 107
14 59 40
14 60 267
14 61 156
14 62 25
14 63 108
14 64 225
14 65 148
14 66 269
14 67 258
14 68 32
14 69 21
14 70 30
14 71 38
14 72 265
14 73 150
14 74 148
14 75 96
14 76 84
14 77 87
14 78 266
14 79 82
14 80 134
14 81 118
14 82 155
14 83 139
14 84 55
14 85 38
14 86 253
14 87 210
14 88 195
14 89 230
14 90 208
15 16 222
15 17 142
15 18 261
15 19 91
15 20 30
15 21 184
15 22 214
15 23 246
15 24 48
15 25 93
15 26 251
15 27 197
15 28 217
15 29 202
15 30 110
15 31 192
15 32 80
15 33 115
15 34 127
15 35 258
15 36 226
15 37 49
15 38 101
15 39 219
15 40 116
15 41 111
15 42 262
15 43 21
15 44 189
15 45 172
15 46 85
15 47 177
15 48 256
15 49 184
15 50 80
15 51 153
15 52 263
15 53 3
15 54 12
15 55 39
15 56 37
15 57 165
15 58 256
15 59 240
15 60 177
15 61 106
15 62 73
15 63 267
15 64 134
15 65 170
15 66 61
15 67 58
15 68 64
15 69 63
15 70 227
15 71 60
15 72 215
15 73 140
15 74 113
15 75 106
15 76 150
15 77 228
15 78 201
15 79 33
15 80 159
15 81 224
15 82 39
15 83 182
15 84 139
15 85 139
15 86 82
15 87 256
15 88 168
15 89 157
15 90 126
16 17 20
16 18 181
16 19 38
16 20 160
16 21 108
16 22 189
16 23 193
16 24 26
16 25 40
16 26 221
16 27 247
16 28 183
16 29 236
16 30 235
16 31 221
16 32 219
16 33 53
16 34 151
16 35 99
16 36 78
16 37 211
16 38 109
16 39 11
16 40 110
16 41 219
16 42 204
16 43 113
16 44 18
16 45 19
16 46 141
16 47 248
16 48 176
16 49 219
16 50 45
16 51 133
16 52 43
16 53 222
16 54 153
16 55 101
16 56 218
16 57 133
16 58 6
16 59 13
16 60 17
16 61 237
16 62 137
16 63 169
16 64 88
16 65 136
16 66 62
16 67 122
16 68 243
16 69 250
16 70 226
16 71 242
16 72 170
16 73 90
16 74 243
16 75 87
16 76 208
16 77 109
16 78 121
16 79 235
16 80 253
16 81 43
16 82 25
16 83 71
16 84 251
16 85 138
16 86 168
16 87 34
16 88 38
16 89 200
16 90 21
17 18 89
17 19 164
17 20 59
17 21 163
17 22 226
17 23 0
17 24 52
17 25 227
17 26 6
17 27 125
17 28 191
17 29 207
17 30 36
17 31 81
17 32 113
17 33 107
17 34 71
17 35 164
17 36 146
17 37 95
17 38 222
17 39 203
17 40 127
17 41 84
17 42 178
17 43 40
17 44 263
17 45 206
17 46 256
17 47 236
17 48 58
17 49 159
17 50 215
17 51 244
17 52 62
17 53 87
17 54 51
17 55 208
17 56 2
17 57 134
17 58 72
17 59 24
17 60 22
17 61 219
17 62 23
17 63 256
17 64 179
17 65 35
17 66 209
17 67 3
17 68 237
17 69 166
17 70 14
17 71 135
17 72 223
17 73 149
17 74 130
17 75 206
17 76 131
17 77 131
17 78 132
17 79 75
17 80 76
17 81 44
17 82 92
17 83 115
17 84 21
17 85 106
17 86 198
17 87 100
17 88 27
17 89 239
17 90 142
18 19 5
18 20 239
18 21 16
18 22 167
18 23 105
18 24 262
18 25 164
18 26 4
18 27 143
18 28 109
18 29 92
18 30 26
18 31 104
18 32 198
18 33 13
18 34 95
18 35 87
18 36 201
18 37 73
18 38 41
18 39 178
18 40 216
18 41 180
18 42 234
18 43 57
18 44 78
18 45 151
18 46 61
18 47 101
18 48 84
18 49 62
18 50 46
18 51 240
18 52 75
18 53 49
18 54 269
18 55 133
18 56 249
18 57 1
18 58 138
18 59 43
18 60 108
18 61 250
18 62 201
18 63 205
18 64 82
18 65 90
18 66 54
18 67 129
18 68 46
18 69 17
18 70 241
18 71 269
18 72 193
18 73 238
18 74 143
18 75 153
18 76 114
18 77 234
18 78 27
18 79 182
18 80 73
18 81 68
18 82 35
18 83 267
18 84 145
18 85 204
18 86 247
18 87 121
18 88 70
18 89 199
18 90 10
19 20 189
19 21 63
19 22 27
19 23 118
19 24 168
19 25 54
19 26 126
19 27 60
19 28 195
19 29 199
19 30 148
19 31 69
19 32 201
19 33 141
19 34 36
19 35 141
19 36 90
19 37 236
19 38 109
19 39 189
19 40 31
19 41 192
19 42 190
19 43 4
19 44 4
19 45 192
19 46 9
19 47 222
19 48 207
19 49 46
19 50 125
19 51 208
19 52 188
19 53 114
19 54 107
19 55 118
19 56 67
19 57 7
19 58 83
19 59 222
19 60 133
19 61 4
19 62 224
19 63 74
19 64 130
19 65 116
19 66 68
19 67 105
19 68 42
19 69 200
19 70 3
19 71 173
19 72 216
19 73 182
19 74 63
19 75 52
19 76 174
19 77 127
19 78 54
19 79 141
19 80 79
19 81 20
19 82 41
19 83 269
19 84 231
19 85 64
19 86 206
19 87 19
19 88 150
19 89 15
19 90 112
20 21 86
20 22 196
20 23 118
20 24 261
20 25 257
20 26 92
20 27 25
20 28 12
20 29 26
20 30 226
20 31 34
20 32 46
20 33 102
20 34 61
20 35 224
20 36 209
20 37 198
20 38 65
20 39 132
20 40 70
20 41 137
20 42 249
20 43 129
20 44 33
20 45 228
20 46 52
20 47 46
20 48 106
20 49 226
20 50 193
20 51 84
20 52 263
20 53 155
20 54 59
20 55 17
20 56 189
20 57 245
20 58 202
20 59 59
20 60 172
20 61 132
20 62 105
20 63 125
20 64 129
20 65 173
20 66 16
20 67 97
20 68 202
20 69 255
20 70 219
20 71 5
20 72 20
20 73 216
20 74 37
20 75 100
20 76 171
20 77 26
20 78 264
20 79 97
20 80 127
20 81 254
20 82 156
20 83 79
20 84 244
20 85 167
20 86 64
20 87 79
20 88 64
20 89 217
20 90 0
21 22 102
21 23 165
21 24 181
21 25 0
21 26 253
21 27 153
21 28 204
21 29 235
21 30 94
21 31 155
21 32 175
21 33 66
21 34 61
21 35 260
21 36 83
21 37 188
21 38 118
21 39 219
21 40 91
21 41 254
21 42 45
21 43 45
21 44 105
21 45 196
21 46 240
21 47 74
21 48 129
21 49 164
21 50 232
21 51 221
21 52 153
21 53 227
21 54 80
21 55 231
21 56 75
21 57 79
21 58 133
21 59 65
21 60 267
21 61 176
21 62 195
21 63 25
21 64 173
21 65 253
21 66 12
21 67 227
21 68 49
21 69 105
21 70 34
21 71 49
21 72 127
21 73 52
21 74 189
21 75 228
21 76 2
21 77 41
21 78 151
21 79 81
21 80 254
21 81 62
21 82 170
21 83 90
21 84 56
21 85 239
21 86 8
21 87 213
21 88 177
21 89 193
21 90 147
22 23 89
22 24 240
22 25 247
22 26 8
22 27 5
22 28 10
22 29 225
22 30 61
22 31 66
22 32 95
22 33 124
22 34 251
22 35 241
22 36 40
22 37 52
22 38 196
22 39 90
22 40 127
22 41 247
22 42 118
22 43 108
22 44 135
22 45 216
22 46 32
22 47 24
22 48 202
22 49 231
22 50 88
22 51 117
22 52 221
22 53 128
22 54 246
22 55 111
22 56 84
22 57 251
22 58 16
22 59 232
22 60 186
22 61 88
22 62 194
22 63 153
22 64 244
22 65 15
22 66 130
22 67 79
22 68 119
22 69 210
22 70 50
22 71 50
22 72 144
22 73 261
22 74 215
22 75 135
22 76 186
22 77 267
22 78 239
22 79 195
22 80 10
22 81 81
22 82 89
22 83 207
22 84 263
22 85 100
22 86 188
22 87 242
22 88 86
22 89 258
22 90 44
23 24 46
23 25 106
23 26 4
23 27 222
23 28 78
23 29 248
23 30 109
23 31 221
23 32 214
23 33 160
23 34 119
23 35 138
23 36 250
23 37 136
23 38 198
23 39 187
23 40 99
23 41 13
23 42 205
23 43 144
23 44 160
23 45 229
23 46 154
23 47 85
23 48 101
23 49 39
23 50 214
23 51 9
23 52 150
23 53 6
23 54 239
23 55 90
23 56 104
23 57 220
23 58 108
23 59 101
23 60 192
23 61 211
23 62 59
23 63 20
23 64 16
23 65 74
23 66 25
23 67 262
23 68 181
23 69 63
23 70 104
23 71 269
23 72 49
23 73 161
23 74 207
23 75 256
23 76 58
23 77 239
23 78 167
23 79 53
23 80 67
23 81 38
23 82 140
23 83 29
23 84 234
23 85 9
23 86 199
23 87 160
23 88 34
23 89 208
23 90 46
24 25 221
24 26 219
24 27 201
24 28 24
24 29 137
24 30 169
24 31 165
24 32 211
24 33 265
24 34 131
24 35 11
24 36 109
24 37 109
24 38 269
24 39 183
24 40 70
24 41 266
24 42 208
24 43 29
24 44 193
24 45 108
24 46 189
24 47 112
24 48 154
24 49 31
24 50 153
24 51 25
24 52 76
24 53 122
24 54 215
24 55 15
24 56 244
24 57 66
24 58 220
24 59 44
24 60 128
24 61 191
24 62 96
24 63 57
24 64 130
24 65 87
24 66 229
24 67 135
24 68 92
24 69 193
24 70 242
24 71 136
24 72 39
24 73 110
24 74 201
24 75 167
24 76 10
24 77 54
24 78 59
24 79 39
24 80 220
24 81 71
24 82 216
24 83 19
24 84 218
24 85 222
24 86 197
24 87 77
24 88 161
24 89 140
24 90 255
25 26 38
25 27 205
25 28 217
25 29 131
25 30 185
25 31 157
25 32 228
25 33 180
25 34 72
25 35 84
25 36 39
25 37 113
25 38 156
25 39 49
25 40 60
25 41 20
25 42 250
25 43 175
25 44 267
25 45 59
25 46 86
25 47 124
25 48 129
25 49 241
25 50 88
25 51 84
25 52 200
25 53 152
25 54 206
25 55 198
25 56 217
25 57 138
25 58 99
25 59 144
25 60 81
25 61 6
25 62 30
25 63 136
25 64 250
25 65 229
25 66 164
25 67 100
25 68 74
25 69 250
25 70 211
25 71 239
25 72 22
25 73 63
25 74 225
25 75 201
25 76 191
25 77 212
25 78 24
25 79 188
25 80 212
25 81 267
25 82 167
25 83 22
25 84 161
25 85 68
25 86 85
25 87 85
25 88 176
25 89 97
25 90 206
26 27 131
26 28 127
26 29 219
26 30 1
26 31 255
26 32 221
26 33 173
26 34 90
26 35 8
26 36 11
26 37 253
26 38 231
26 39 262
26 40 240
26 41 222
26 42 192
26 43 57
26 44 172
26 45 48
26 46 74
26 47 155
26 48 42
26 49 179
26 50 239
26 51 15
26 52 81
26 53 126
26 54 144
26 55 113
26 56 185
26 57 125
26 58 149
26 59 33
26 60 81
26 61 73
26 62 187
26 63 102
26 64 33
26 65 155
26 66 19
26 67 139
26 68 5
26 69 207
26 70 211
26 71 104
26 72 132
26 73 83
26 74 158
26 75 14
26 76 219
26 77 36
26 78 264
26 79 1
26 80 31
26 81 160
26 82 116
26 83 51
26 84 39
26 85 104
26 86 68
26 87 233
26 88 42
26 89 165
26 90 13
27 28 156
27 29 200
27 30 46
27 31 128
27 32 170
27 33 174
27 34 52
27 35 81
27 36 76
27 37 189
27 38 109
27 39 123
27 40 158
27 41 256
27 42 123
27 43 157
27 44 94
27 45 139
27 46 142
27 47 259
27 48 27
27 49 95
27 50 196
27 51 217
27 52 55
27 53 47
27 54 155
27 55 10
27 56 89
27 57 113
27 58 106
27 59 254
27 60 158
27 61 30
27 62 269
27 63 27
27 64 171
27 65 127
27 66 87
27 67 205
27 68 3
27 69 60
27 70 43
27 71 156
27 72 126
27 73 236
27 74 195
27 75 190
27 76 159
27 77 136
27 78 6
27 79 217
27 80 84
27 81 243
27 82 265
27 83 88
27 84 158
27 85 148
27 86 207
27 87 6
27 88 229
27 89 61
27 90 200
28 29 162
28 30 63
28 31 8
28 32 200
28 33 124
28 34 57
28 35 58
28 36 139
28 37 195
28 38 221
28 39 5
28 40 54
28 41 20
28 42 237
28 43 14
28 44 35
28 45 120
28 46 31
28 47 37
28 48 218
28 49 246
28 50 143
28 51 195
28 52 234
28 53 157
28 54 199
28 55 111
28 56 221
28 57 146
28 58 138
28 59 235
28 60 240
28 61 249
28 62 12
28 63 51
28 64 99
28 65 147
28 66 51
28 67 144
28 68 148
28 69 195
28 70 168
28 71 151
28 72 111
28 73 187
28 74 189
28 75 36
28 76 216
28 77 137
28 78 154
28 79 258
28 80 208
28 81 152
28 82 149
28 83 153
28 84 72
28 85 109
28 86 211
28 87 71
28 88 94
28 89 46
28 90 83
29 30 31
29 31 210
29 32 242
29 33 71
29 34 24
29 35 202
29 36 1
29 37 29
29 38 90
29 39 37
29 40 95
29 41 131
29 42 265
29 43 86
29 44 222
29 45 232
29 46 135
29 47 226
29 48 228
29 49 87
29 50 88
29 51 53
29 52 6
29 53 3
29 54 269
29 55 190
29 56 174
29 57 251
29 58 216
29 59 38
29 60 207
29 61 66
29 62 193
29 63 252
29 64 127
29 65 241
29 66 9
29 67 4
29 68 251
29 69 164
29 70 165
29 71 239
29 72 185
29 73 255
29 74 30
29 75 153
29 76 85
29 77 78
29 78 9
29 79 201
29 80 104
29 81 209
29 82 61
29 83 201
29 84 39
29 85 16
29 86 254
29 87 144
29 88 71
29 89 257
29 90 193
30 31 105
30 32 250
30 33 46
30 34 65
30 35 135
30 36 36
30 37 165
30 38 50
30 39 210
30 40 66
30 41 159
30 42 256
30 43 164
30 44 195
30 45 48
30 46 24
30 47 116
30 48 137
30 49 5
30 50 7
30 51 59
30 52 49
30 53 200
30 54 37
30 55 100
30 56 25
30 57 197
30 58 148
30 59 182
30 60 42
30 61 218
30 62 89
30 63 209
30 64 204
30 65 161
30 66 22
30 67 144
30 68 235
30 69 226
30 70 226
30 71 3
30 72 69
30 73 13
30 74 134
30 75 87
30 76 106
30 77 159
30 78 148
30 79 56
30 80 173
30 81 79
30 82 84
30 83 215
30 84 53
30 85 138
30 86 232
30 87 240
30 88 199
30 89 256
30 90 226
31 32 154
31 33 139
31 34 133
31 35 48
31 36 59
31 37 131
31 38 178
31 39 181
31 40 106
31 41 41
31 42 76
31 43 259
31 44 33
31 45 223
31 46 62
31 47 222
31 48 144
31 49 216
31 50 186
31 51 3
31 52 234
31 53 164
31 54 76
31 55 258
31 56 230
31 57 152
31 58 20
31 59 254
31 60 46
31 61 59
31 62 72
31 63 65
31 64 46
31 65 23
31 66 210
31 67 233
31 68 82
31 69 48
31 70 26
31 71 127
31 72 186
31 73 112
31 74 151
31 75 65
31 76 224
31 77 0
31 78 143
31 79 23
31 80 132
31 81 100
31 82 153
31 83 22
31 84 266
31 85 120
31 86 230
31 87 44
31 88 80
31 89 33
31 90 254
32 33 162
32 34 47
32 35 88
32 36 222
32 37 51
32 38 197
32 39 239
32 40 94
32 41 104
32 42 57
32 43 186
32 44 168
32 45 40
32 46 201
32 47 28
32 48 240
32 49 126
32 50 228
32 51 132
32 52 197
32 53 66
32 54 213
32 55 183
32 56 228
32 57 187
32 58 258
32 59 33
32 60 245
32 61 83
32 62 35
32 63 88
32 64 0
32 65 234
32 66 242
32 67 83
32 68 12
32 69 199
32 70 260
32 71 94
32 72 167
32 73 109
32 74 148
32 75 37
32 76 135
32 77 112
32 78 236
32 79 243
32 80 100
32 81 105
32 82 261
32 83 87
32 84 267
32 85 23
32 86 16
32 87 23
32 88 72
32 89 202
32 90 189
33 34 21
33 35 92
33 36 251
33 37 171
33 38 26
33 39 17
33 40 131
33 41 252
33 42 88
33 43 248
33 44 268
33 45 43
33 46 34
33 47 175
33 48 220
33 49 8
33 50 230
33 51 30
33 52 162
33 53 201
33 54 215
33 55 95
33 56 155
33 57 224
33 58 86
33 59 128
33 60 124
33 61 147
33 62 263
33 63 133
33 64 175
33 65 222
33 66 229
33 67 258
33 68 185
33 69 36
33 70 148
33 71 197
33 72 76
33 73 197
33 74 243
33 75 87
33 76 68
33 77 185
33 78 182
33 79 59
33 80 171
33 81 202
33 82 166
33 83 61
33 84 26
33 85 19
33 86 237
33 87 171
33 88 232
33 89 58
33 90 102
34 35 49
34 36 196
34 37 135
34 38 41
34 39 44
34 40 214
34 41 124
34 42 10
34 43 28
34 44 135
34 45 47
34 46 33
34 47 223
34 48 240
34 49 71
34 50 102
34 51 191
34 52 213
34 53 262
34 54 176
34 55 176
34 56 225
34 57 32
34 58 200
34 59 269
34 60 5
34 61 217
34 62 149
34 63 122
34 64 161
34 65 81
34 66 18
34 67 138
34 68 226
34 69 228
34 70 59
34 71 145
34 72 78
34 73 17
34 74 191
34 75 132
34 76 123
34 77 166
34 78 3
34 79 183
34 80 10
34 81 91
34 82 164
34 83 37
34 84 263
34 85 205
34 86 45
34 87 238
34 88 58
34 89 191
34 90 16
35 36 79
35 37 92
35 38 143
35 39 253
35 40 20
35 41 258
35 42 192
35 43 63
35 44 140
35 45 45
35 46 9
35 47 147
35 48 35
35 49 199
35 50 134
35 51 260
35 52 75
35 53 7
35 54 45
35 55 37
35 56 190
35 57 225
35 58 249
35 59 86
35 60 252
35 61 45
35 62 105
35 63 72
35 64 55
35 65 25
35 66 128
35 67 30
35 68 30
35 69 207
35 70 28
35 71 52
35 72 267
35 73 29
35 74 29
35 75 184
35 76 214
35 77 137
35 78 118
35 79 156
35 80 24
35 81 207
35 82 104
35 83 125
35 84 51
35 85 207
35 86 22
35 87 7
35 88 44
35 89 163
35 90 174
36 37 63
36 38 121
36 39 89
36 40 46
36 41 45
36 42 41
36 43 73
36 44 207
36 45 165
36 46 93
36 47 204
36 48 164
36 49 46
36 50 13
36 51 156
36 52 107
36 53 254
36 54 269
36 55 122
36 56 51
36 57 186
36 58 47
36 59 81
36 60 5
36 61 8
36 62 41
36 63 63
36 64 195
36 65 69
36 66 238
36 67 196
36 68 158
36 69 243
36 70 153
36 71 154
36 72 263
36 73 146
36 74 55
36 75 237
36 76 94
36 77 243
36 78 106
36 79 107
36 80 99
36 81 115
36 82 221
36 83 260
36 84 241
36 85 230
36 86 78
36 87 243
36 88 250
36 89 138
36 90 86
37 38 234
37 39 96
37 40 250
37 41 222
37 42 250
37 43 78
37 44 12
37 45 32
37 46 32
37 47 101
37 48 11
37 49 215
37 50 52
37 51 78
37 52 76
37 53 236
37 54 214
37 55 144
37 56 28
37 57 20
37 58 74
37 59 221
37 60 59
37 61 133
37 62 10
37 63 85
37 64 88
37 65 220
37 66 93
37 67 206
37 68 79
37 69 190
37 70 255
37 71 139
37 72 136
37 73 67
37 74 158
37 75 58
37 76 113
37 77 23
37 78 203
37 79 188
37 80 117
37 81 84
37 82 164
37 83 253
37 84 197
37 85 43
37 86 77
37 87 200
37 88 22
37 89 216
37 90 4
38 39 133
38 40 235
38 41 249
38 42 120
38 43 210
38 44 228
38 45 36
38 46 144
38 47 205
38 48 256
38 49 123
38 50 161
38 51 85
38 52 202
38 53 85
38 54 16
38 55 37
38 56 166
38 57 156
38 58 129
38 59 197
38 60 235
38 61 20
38 62 179
38 63 44
38 64 67
38 65 265
38 66 93
38 67 147
38 68 200
38 69 185
38 70 234
38 71 78
38 72 29
38 73 113
38 74 49
38 75 37
38 76 4
38 77 223
38 78 111
38 79 224
38 80 26
38 81 174
38 82 77
38 83 73
38 84 201
38 85 120
38 86 262
38 87 132
38 88 74
38 89 145
38 90 148
39 40 163
39 41 61
39 42 59
39 43 35
39 44 176
39 45 232
39 46 237
39 47 188
39 48 9
39 49 232
39 50 263
39 51 102
39 52 24
39 53 54
39 54 29
39 55 47
39 56 35
39 57 182
39 58 48
39 59 160
39 60 152
39 61 104
39 62 213
39 63 108
39 64 68
39 65 220
39 66 34
39 67 55
39 68 183
39 69 226
39 70 107
39 71 205
39 72 89
39 73 191
39 74 198
39 75 90
39 76 193
39 77 218
39 78 268
39 79 159
39 80 136
39 81 189
39 82 23
39 83 40
39 84 106
39 85 268
39 86 196
39 87 100
39 88 228
39 89 124
39 90 155
40 41 251
40 42 78
40 43 28
40 44 125
40 45 180
40 46 116
40 47 186
40 48 68
40 49 170
40 50 198
40 51 173
40 52 185
40 53 191
40 54 214
40 55 116
40 56 43
40 57 198
40 58 232
40 59 181
40 60 159
40 61 55
40 62 114
40 63 47
40 64 146
40 65 90
40 66 253
40 67 28
40 68 256
40 69 169
40 70 227
40 71 36
40 72 145
40 73 201
40 74 267
40 75 219
40 76 98
40 77 79
40 78 59
40 79 62
40 80 145
40 81 177
40 82 161
40 83 265
40 84 27
40 85 152
40 86 250
40 87 152
40 88 202
40 89 215
40 90 42
41 42 36
41 43 30
41 44 219
41 45 65
41 46 209
41 47 252
41 48 99
41 49 58
41 50 141
41 51 17
41 52 191
41 53 267
41 54 76
41 55 163
41 56 14
41 57 64
41 58 126
41 59 265
41 60 147
41 61 244
41 62 179
41 63 174
41 64 56
41 65 2
41 66 266
41 67 47
41 68 207
41 69 110
41 70 162
41 71 219
41 72 22
41 73 66
41 74 95
41 75 156
41 76 91
41 77 89
41 78 174
41 79 117
41 80 63
41 81 134
41 82 142
41 83 82
41 84 135
41 85 124
41 86 269
41 87 254
41 88 166
41 89 29
41 90 106
42 43 6
42 44 168
42 45 254
42 46 215
42 47 164
42 48 200
42 49 20
42 50 155
42 51 45
42 52 240
42 53 130
42 54 97
42 55 256
42 56 100
42 57 254
42 58 75
42 59 224
42 60 247
42 61 179
42 62 8
42 63 97
42 64 176
42 65 42
42 66 13
42 67 89
42 68 69
42 69 259
42 70 72
42 71 202
42 72 7
42 73 109
42 74 230
42 75 102
42 76 32
42 77 200
42 78 69
42 79 93
42 80 101
42 81 252
42 82 244
42 83 203
42 84 21
42 85 202
42 86 45
42 87 160
42 88 98
42 89 64
42 90 134
43 44 164
43 45 60
43 46 122
43 47 226
43 48 257
43 49 233
43 50 159
43 51 180
43 52 45
43 53 16
43 54 214
43 55 21
43 56 97
43 57 206
43 58 93
43 59 91
43 60 199
43 61 144
43 62 32
43 63 50
43 64 65
43 65 41
43 66 51
43 67 158
43 68 27
43 69 217
43 70 234
43 71 90
43 72 68
43 73 3
43 74 60
43 75 156
43 76 129
43 77 268
43 78 166
43 79 133
43 80 88
43 81 106
43 82 204
43 83 176
43 84 69
43 85 196
43 86 148
43 87 40
43 88 217
43 89 217
43 90 35
44 45 142
44 46 179
44 47 67
44 48 95
44 49 148
44 50 64
44 51 238
44 52 223
44 53 241
44 54 182
44 55 114
44 56 31
44 57 258
44 58 49
44 59 201
44 60 219
44 61 222
44 62 102
44 63 251
44 64 114
44 65 213
44 66 227
44 67 47
44 68 180
44 69 239
44 70 15
44 71 78
44 72 18
44 73 192
44 74 54
44 75 37
44 76 57
44 77 223
44 78 55
44 79 198
44 80 69
44 81 115
44 82 56
44 83 266
44 84 116
44 85 50
44 86 129
44 87 73
44 88 237
44 89 77
44 90 149
45 46 75
45 47 258
45 48 188
45 49 181
45 50 24
45 51 139
45 52 43
45 53 267
45 54 23
45 55 36
45 56 235
45 57 134
45 58 201
45 59 217
45 60 168
45 61 210
45 62 135
45 63 128
45 64 79
45 65 124
45 66 254
45 67 232
45 68 199
45 69 88
45 70 140
45 71 95
45 72 192
45 73 148
45 74 132
45 75 242
45 76 7
45 77 82
45 78 23
45 79 0
45 80 34
45 81 168
45 82 156
45 83 168
45 84 145
45 85 32
45 86 53
45 87 146
45 88 26
45 89 36
45 90 154
46 47 221
46 48 151
46 49 112
46 50 199
46 51 81
46 52 89
46 53 159
46 54 177
46 55 195
46 56 97
46 57 109
46 58 131
46 59 32
46 60 53
46 61 105
46 62 216
46 63 93
46 64 155
46 65 11
46 66 202
46 67 142
46 68 172
46 69 98
46 70 208
46 71 110
46 72 4
46 73 51
46 74 65
46 75 21
46 76 32
46 77 97
46 78 50
46 79 59
46 80 205
46 81 145
46 82 69
46 83 33
46 84 51
46 85 170
46 86 6
46 87 248
46 88 71
46 89 67
46 90 37
47 48 73
47 49 220
47 50 167
47 51 146
47 52 115
47 53 126
47 54 182
47 55 66
47 56 198
47 57 115
47 58 13
47 59 159
47 60 227
47 61 90
47 62 146
47 63 155
47 64 72
47 65 179
47 66 213
47 67 36
47 68 223
47 69 232
47 70 140
47 71 250
47 72 150
47 73 28
47 74 90
47 75 106
47 76 237
47 77 58
47 78 143
47 79 122
47 80 239
47 81 159
47 82 40
47 83 116
47 84 147
47 85 123
47 86 120
47 87 121
47 88 262
47 89 49
47 90 14
48 49 179
48 50 197
48 51 0
48 52 153
48 53 48
48 54 132
48 55 201
48 56 89
48 57 210
48 58 55
48 59 28
48 60 58
48 61 29
48 62 106
48 63 249
48 64 267
48 65 9
48 66 175
48 67 111
48 68 184
48 69 33
48 70 258
48 71 132
48 72 94
48 73 42
48 74 105
48 75 50
48 76 166
48 77 120
48 78 48
48 79 185
48 80 234
48 81 34
48 82 228
48 83 189
48 84 93
48 85 196
48 86 243
48 87 226
48 88 46
48 89 267
48 90 60
49 50 240
49 51 157
49 52 133
49 53 64
49 54 249
49 55 237
49 56 85
49 57 142
49 58 254
49 59 151
49 60 258
49 61 10
49 62 16
49 63 56
49 64 38
49 65 202
49 66 198
49 67 246
49 68 236
49 69 213
49 70 260
49 71 261
49 72 102
49 73 37
49 74 58
49 75 184
49 76 234
49 77 6
49 78 57
49 79 105
49 80 153
49 81 236
49 82 78
49 83 133
49 84 108
49 85 28
49 86 172
49 87 76
49 88 75
49 89 78
49 90 74
50 51 123
50 52 100
50 53 56
50 54 126
50 55 238
50 56 209
50 57 31
50 58 13
50 59 254
50 60 147
50 61 223
50 62 125
50 63 264
50 64 176
50 65 126
50 66 212
50 67 51
50 68 185
50 69 203
50 70 268
50 71 44
50 72 122
50 73 17
50 74 123
50 75 233
50 76 264
50 77 251
50 78 209
50 79 178
50 80 83
50 81 96
50 82 263
50 83 155
50 84 46
50 85 235
50 86 92
50 87 250
50 88 2
50 89 66
50 90 75
51 52 75
51 53 180
51 54 46
51 55 24
51 56 217
51 57 22
51 58 85
51 59 62
51 60 139
51 61 158
51 62 26
51 63 60
51 64 148
51 65 1
51 66 36
51 67 184
51 68 62
51 69 203
51 70 144
51 71 227
51 72 129
51 73 53
51 74 94
51 75 105
51 76 15
51 77 265
51 78 142
51 79 48
51 80 189
51 81 162
51 82 115
51 83 250
51 84 87
51 85 186
51 86 242
51 87 102
51 88 187
51 89 77
51 90 240
52 53 34
52 54 254
52 55 193
52 56 232
52 57 137
52 58 56
52 59 67
52 60 44
52 61 268
52 62 57
52 63 15
52 64 20
52 65 107
52 66 113
52 67 10
52 68 33
52 69 170
52 70 157
52 71 11
52 72 1
52 73 103
52 74 163
52 75 211
52 76 72
52 77 94
52 78 225
52 79 67
52 80 86
52 81 172
52 82 218
52 83 35
52 84 158
52 85 184
52 86 50
52 87 26
52 88 145
52 89 124
52 90 37
53 54 3
53 55 174
53 56 199
53 57 210
53 58 50
53 59 222
53 60 53
53 61 79
53 62 166
53 63 0
53 64 264
53 65 262
53 66 125
53 67 204
53 68 269
53 69 114
53 70 39
53 71 171
53 72 91
53 73 203
53 74 230
53 75 93
53 76 112
53 77 7
53 78 121
53 79 18
53 80 10
53 81 93
53 82 51
53 83 50
53 84 133
53 85 159
53 86 168
53 87 159
53 88 6
53 89 22
53 90 12
54 55 63
54 56 195
54 57 238
54 58 213
54 59 151
54 60 218
54 61 189
54 62 68
54 63 97
54 64 33
54 65 205
54 66 225
54 67 128
54 68 227
54 69 222
54 70 36
54 71 188
54 72 117
54 73 159
54 74 2
54 75 72
54 76 139
54 77 64
54 78 240
54 79 142
54 80 97
54 81 143
54 82 109
54 83 51
54 84 103
54 85 245
54 86 259
54 87 218
54 88 35
54 89 20
54 90 195
55 56 263
55 57 25
55 58 72
55 59 9
55 60 246
55 61 228
55 62 127
55 63 16
55 64 142
55 65 87
55 66 66
55 67 146
55 68 247
55 69 206
55 70 3
55 71 220
55 72 36
55 73 252
55 74 198
55 75 93
55 76 258
55 77 106
55 78 98
55 79 261
55 80 246
55 81 23
55 82 108
55 83 101
55 84 131
55 85 68
55 86 180
55 87 26
55 88 228
55 89 209
55 90 265
56 57 123
56 58 164
56 59 245
56 60 33
56 61 68
56 62 225
56 63 15
56 64 74
56 65 122
56 66 19
56 67 111
56 68 21
56 69 116
56 70 71
56 71 49
56 72 24
56 73 57
56 74 215
56 75 93
56 76 223
56 77 7
56 78 48
56 79 158
56 80 199
56 81 200
56 82 13
56 83 204
56 84 40
56 85 198
56 86 106
56 87 105
56 88 26
56 89 220
56 90 207
57 58 90
57 59 177
57 60 158
57 61 15
57 62 168
57 63 29
57 64 148
57 65 268
57 66 93
57 67 197
57 68 128
57 69 9
57 70 258
57 71 225
57 72 198
57 73 43
57 74 241
57 75 101
57 76 216
57 77 190
57 78 65
57 79 1
57 80 98
57 81 6
57 82 219
57 83 134
57 84 252
57 85 69
57 86 82
57 87 3
57 88 186
57 89 127
57 90 81
58 59 72
58 60 143
58 61 62
58 62 61
58 63 127
58 64 233
58 65 265
58 66 246
58 67 214
58 68 179
58 69 94
58 70 83
58 71 269
58 72 16
58 73 69
58 74 157
58 75 126
58 76 62
58 77 265
58 78 237
58 79 49
58 80 72
58 81 217
58 82 259
58 83 227
58 84 6
58 85 252
58 86 269
58 87 179
58 88 222
58 89 62
58 90 186
59 60 87
59 61 244
59 62 221
59 63 20
59 64 222
59 65 154
59 66 48
59 67 205
59 68 104
59 69 236
59 70 119
59 71 107
59 72 56
59 73 268
59 74 60
59 75 133
59 76 109
59 77 151
59 78 170
59 79 259
59 80 232
59 81 47
59 82 42
59 83 245
59 84 126
59 85 170
59 86 13
59 87 132
59 88 169
59 89 110
59 90 36
60 61 194
60 62 36
60 63 128
60 64 196
60 65 8
60 66 190
60 67 26
60 68 179
60 69 61
60 70 9
60 71 162
60 72 108
60 73 47
60 74 82
60 75 19
60 76 179
60 77 103
60 78 6
60 79 147
60 80 114
60 81 41
60 82 63
60 83 92
60 84 174
60 85 75
60 86 258
60 87 31
60 88 142
60 89 241
60 90 5
61 62 64
61 63 227
61 64 5
61 65 72
61 66 243
61 67 42
61 68 199
61 69 189
61 70 72
61 71 113
61 72 214
61 73 57
61 74 136
61 75 58
61 76 73
61 77 107
61 78 98
61 79 131
61 80 83
61 81 31
61 82 202
61 83 99
61 84 208
61 85 6
61 86 34
61 87 82
61 88 116
61 89 27
61 90 265
62 63 36
62 64 190
62 65 171
62 66 219
62 67 174
62 68 34
62 69 31
62 70 13
62 71 240
62 72 105
62 73 177
62 74 100
62 75 179
62 76 153
62 77 264
62 78 61
62 79 243
62 80 154
62 81 243
62 82 231
62 83 239
62 84 223
62 85 131
62 86 60
62 87 43
62 88 159
62 89 257
62 90 131
63 64 68
63 65 236
63 66 9
63 67 174
63 68 235
63 69 88
63 70 250
63 71 113
63 72 64
63 73 31
63 74 234
63 75 8
63 76 12
63 77 194
63 78 34
63 79 240
63 80 205
63 81 249
63 82 245
63 83 34
63 84 11
63 85 181
63 86 266
63 87 250
63 88 228
63 89 85
63 90 8
64 65 184
64 66 40
64 67 37
64 68 166
64 69 198
64 70 255
64 71 130
64 72 247
64 73 181
64 74 100
64 75 174
64 76 267
64 77 125
64 78 72
64 79 102
64 80 250
64 81 24
64 82 4
64 83 253
64 84 26
64 85 254
64 86 87
64 87 245
64 88 10
64 89 104
64 90 1
65 66 244
65 67 224
65 68 165
65 69 142
65 70 261
65 71 85
65 72 54
65 73 22
65 74 269
65 75 149
65 76 2
65 77 188
65 78 152
65 79 133
65 80 39
65 81 182
65 82 164
65 83 83
65 84 161
65 85 131
65 86 80
65 87 125
65 88 43
65 89 52
65 90 183
66 67 129
66 68 126
66 69 13
66 70 102
66 71 74
66 72 209
66 73 232
66 74 114
66 75 3
66 76 68
66 77 166
66 78 124
66 79 106
66 80 84
66 81 221
66 82 35
66 83 148
66 84 91
66 85 185
66 86 247
66 87 211
66 88 144
66 89 47
66 90 259
67 68 230
67 69 80
67 70 239
67 71 70
67 72 89
67 73 255
67 74 97
67 75 40
67 76 158
67 77 38
67 78 203
67 79 160
67 80 109
67 81 208
67 82 238
67 83 267
67 84 17
67 85 178
67 86 200
67 87 207
67 88 261
67 89 27
67 90 20
68 69 262
68 70 84
68 71 136
68 72 94
68 73 245
68 74 116
68 75 187
68 76 134
68 77 1
68 78 183
68 79 59
68 80 112
68 81 187
68 82 93
68 83 246
68 84 253
68 85 106
68 86 251
68 87 192
68 88 262
68 89 181
68 90 240
69 70 9
69 71 115
69 72 173
69 73 107
69 74 268
69 75 144
69 76 136
69 77 124
69 78 44
69 79 84
69 80 265
69 81 82
69 82 22
69 83 258
69 84 118
69 85 189
69 86 74
69 87 151
69 88 217
69 89 149
69 90 261
70 71 129
70 72 57
70 73 262
70 74 246
70 75 3
70 76 246
70 77 22
70 78 213
70 79 0
70 80 150
70 81 94
70 82 227
70 83 267
70 84 169
70 85 246
70 86 240
70 87 208
70 88 100
70 89 177
70 90 78
71 72 2
71 73 188
71 74 34
71 75 82
71 76 186
71 77 83
71 78 157
71 79 153
71 80 90
71 81 196
71 82 93
71 83 261
71 84 117
71 85 141
71 86 64
71 87 106
71 88 192
71 89 109
71 90 138
72 73 183
72 74 120
72 75 264
72 76 102
72 77 87
72 78 28
72 79 226
72 80 54
72 81 215
72 82 67
72 83 73
72 84 113
72 85 72
72 86 29
72 87 222
72 88 36
72 89 83
72 90 9
73 74 35
73 75 103
73 76 145
73 77 129
73 78 26
73 79 75
73 80 223
73 81 90
73 82 245
73 83 54
73 84 52
73 85 26
73 86 36
73 87 115
73 88 0
73 89 136
73 90 10
74 75 188
74 76 59
74 77 80
74 78 44
74 79 206
74 80 206
74 81 128
74 82 132
74 83 88
74 84 11
74 85 34
74 86 90
74 87 176
74 88 263
74 89 140
74 90 106
75 76 151
75 77 186
75 78 266
75 79 36
75 80 188
75 81 9
75 82 81
75 83 33
75 84 103
75 85 124
75 86 163
75 87 177
75 88 263
75 89 199
75 90 113
76 77 30
76 78 140
76 79 241
76 80 170
76 81 227
76 82 218
76 83 200
76 84 173
76 85 246
76 86 38
76 87 93
76 88 184
76 89 238
76 90 263
77 78 152
77 79 237
77 80 252
77 81 54
77 82 46
77 83 104
77 84 50
77 85 97
77 86 154
77 87 162
77 88 60
77 89 14
77 90 115
78 79 65
78 80 237
78 81 142
78 82 49
78 83 111
78 84 111
78 85 101
78 86 137
78 87 155
78 88 0
78 89 198
78 90 125
79 80 235
79 81 199
79 82 92
79 83 106
79 84 172
79 85 171
79 86 127
79 87 35
79 88 54
79 89 155
79 90 211
80 81 239
80 82 256
80 83 67
80 84 233
80 85 37
80 86 101
80 87 263
80 88 95
80 89 172
80 90 132
81 82 222
81 83 109
81 84 179
81 85 239
81 86 35
81 87 6
81 88 85
81 89 64
81 90 103
82 83 0
82 84 7
82 85 5
82 86 166
82 87 221
82 88 157
82 89 25
82 90 77
83 84 144
83 85 100
83 86 230
83 87 12
83 88 57
83 89 81
83 90 100
84 85 80
84 86 148
84 87 56
84 88 175
84 89 22
84 90 268
85 86 131
85 87 250
85 88 74
85 89 78
85 90 17
86 87 40
86 88 78
86 89 184
86 90 162
87 88 182
87 89 178
87 90 112
88 89 246
88 90 144
89 90 64
